100
1000
200
199
198
196
196
196
194
194
194
194
193
193
193
192
192
191
191
191
189
189
188
188
188
188
188
188
187
187
187
185
185
185
185
185
185
184
184
183
183
181
180
178
178
178
177
177
177
175
175
175
174
174
173
173
172
172
172
172
171
171
171
171
171
171
170
170
169
169
168
168
168
167
167
167
167
166
163
162
161
161
161
160
160
159
158
157
157
157
156
155
154
153
153
152
152
152
151
151
151
150
